networks/zoo_226_7597/zoo_226_7597-lower.txt
Number of groups: 111
Flow 1: {1 2 0} {2 115 0} 
Flow 2: {1 9 0} {9 87 0} {89 88 0} {88 3 0} {3 116 0} 
Flow 3: {87 4 0} {4 117 0} 
Flow 4: {9 8 0} {8 5 0} {5 118 0} 
Flow 5: {5 6 0} {6 119 0} 
Flow 6: {1 64 0} {64 86 0} {86 63 0} {63 7 0} {7 120 0} 
Flow 7: {8 121 0} 
Flow 8: {9 122 0} 
Flow 9: {105 11 0} {11 124 0} 
Flow 10: {4 48 0} {48 61 0} {61 105 0} {105 12 0} {12 125 0} 
Flow 11: {20 13 0} {13 126 0} 
Flow 12: {11 14 0} {14 127 0} 
Flow 13: {48 16 0} {16 129 0} 
Flow 14: {105 17 0} {17 130 0} 
Flow 15: {4 46 0} {46 44 0} {44 18 0} {18 131 0} 
Flow 16: {105 20 0} {20 19 0} {19 132 0} 
Flow 17: {20 133 0} 
Flow 18: {4 89 0} {89 94 0} {94 95 0} {27 22 0} {22 21 0} {21 134 0} 
Flow 18: {25 26 0} {26 27 0} Flow 19: {22 135 0} 
Flow 19: {95 96 0} {96 25 0} Flow 20: {21 24 0} {24 137 0} 
Flow 21: {25 138 0} 
Flow 22: {26 139 0} 
Flow 23: {27 140 0} 
Flow 24: {28 141 0} 
Flow 25: {7 82 0} {82 78 0} {78 31 0} {31 144 0} 
Flow 26: {31 32 0} {32 145 0} 
Flow 27: {19 36 0} {36 35 0} {35 33 0} {33 146 0} 
Flow 28: {33 34 0} {34 147 0} 
Flow 29: {35 148 0} 
Flow 30: {36 149 0} 
Flow 31: {31 37 0} {37 150 0} 
Flow 32: {20 38 0} {38 151 0} 
Flow 33: {34 39 0} {39 40 0} {40 153 0} 
Flow 34: {85 50 0} {50 41 0} {41 154 0} 
Flow 34: {48 85 0} Flow 35: {44 43 0} {43 42 0} {42 155 0} 
Flow 36: {43 156 0} 
Flow 37: {44 157 0} 
Flow 38: {48 45 0} {45 158 0} 
Flow 39: {46 159 0} 
Flow 40: {6 47 0} {47 160 0} 
Flow 41: {48 161 0} 
Flow 42: {50 49 0} {49 162 0} 
Flow 43: {50 163 0} 
Flow 44: {52 51 0} {51 164 0} 
Flow 45: {48 52 0} {52 165 0} 
Flow 46: {61 54 0} {54 167 0} 
Flow 47: {112 55 0} {55 168 0} 
Flow 48: {48 112 0} {112 56 0} {56 169 0} 
Flow 49: {55 57 0} {57 170 0} 
Flow 50: {51 58 0} {58 171 0} 
Flow 51: {25 28 0} {28 84 0} {84 83 0} {83 62 0} {62 59 0} {59 172 0} 
Flow 52: {61 60 0} {60 173 0} 
Flow 53: {61 174 0} 
Flow 54: {62 175 0} 
Flow 55: {63 176 0} 
Flow 56: {64 177 0} 
Flow 57: {1 65 0} {65 178 0} 
Flow 58: {65 66 0} {66 179 0} 
Flow 59: {65 67 0} {67 180 0} 
Flow 60: {65 68 0} {68 181 0} 
Flow 61: {67 70 0} {70 69 0} {69 182 0} 
Flow 62: {70 183 0} 
Flow 63: {64 71 0} {71 184 0} 
Flow 64: {71 72 0} {72 185 0} 
Flow 65: {82 73 0} {73 186 0} 
Flow 66: {74 187 0} 
Flow 67: {73 76 0} {76 75 0} {75 188 0} 
Flow 68: {76 189 0} 
Flow 69: {76 77 0} {77 190 0} 
Flow 70: {78 191 0} 
Flow 71: {102 79 0} {79 192 0} 
Flow 71: {82 102 0} Flow 72: {103 80 0} {80 193 0} 
Flow 72: {102 103 0} Flow 73: {63 81 0} {81 194 0} 
Flow 74: {82 195 0} 
Flow 75: {83 196 0} 
Flow 76: {84 197 0} 
Flow 77: {85 198 0} 
Flow 78: {86 199 0} 
Flow 79: {87 200 0} 
Flow 80: {88 201 0} 
Flow 81: {89 202 0} 
Flow 82: {55 91 0} {91 90 0} {90 203 0} 
Flow 83: {91 204 0} 
Flow 84: {51 92 0} {92 205 0} 
Flow 85: {92 93 0} {93 206 0} 
Flow 86: {94 207 0} 
Flow 87: {95 208 0} 
Flow 88: {96 209 0} 
Flow 89: {96 97 0} {97 210 0} 
Flow 90: {16 98 0} {98 211 0} 
Flow 91: {48 74 0} {74 99 0} {99 212 0} 
Flow 92: {78 101 0} {101 214 0} 
Flow 93: {102 215 0} 
Flow 94: {103 216 0} 
Flow 95: {78 104 0} {104 217 0} 
Flow 96: {105 218 0} 
Flow 97: {24 106 0} {106 219 0} 
Flow 98: {106 107 0} {107 220 0} 
Flow 99: {59 111 0} {111 110 0} {110 109 0} {109 222 0} 
Flow 100: {110 223 0} 
Flow 101: {111 224 0} 
Flow 102: {112 225 0} 
Flow 103: {99 100 0} {100 113 0} {113 226 0} 
Flow 104: {2 1 0} Flow 150: {2 66 0} Flow 190: {3 88 0} {88 89 0} {89 4 0} {4 87 0} {87 9 0} {9 1 0} Flow 192: {4 5 0} Flow 194: {5 7 0} Flow 195: {5 8 0} Flow 197: {3 56 0} {56 112 0} Flow 198: {112 48 0} Flow 204: {56 55 0} {90 26 0} Flow 207: {56 95 0} Flow 212: {113 32 0} Flow 219: {55 50 0} Flow 220: {41 42 0} Flow 224: {48 47 0} Flow 227: {57 58 0} {58 51 0} Flow 235: {9 64 0} Flow 238: {7 63 0} {63 86 0} {86 67 0} Flow 240: {63 71 0} {72 69 0} Flow 244: {74 73 0} Flow 251: {7 81 0} Flow 255: {50 85 0} Flow 262: {26 93 0} Flow 277: {1 114 0} 
Flow 307: {20 37 0} Flow 375: {107 108 0} {108 221 0} 
Flow 381: {5 87 0} Flow 382: {5 4 0} Flow 433: {67 68 0} Flow 473: {6 5 0} Flow 479: {47 48 0} Flow 486: {93 26 0} Flow 559: {7 5 0} Flow 567: {76 105 0} Flow 590: {32 38 0} Flow 614: {71 64 0} Flow 615: {67 65 0} Flow 624: {73 74 0} Flow 662: {75 113 0} Flow 675: {8 9 0} Flow 787: {10 1 0} Flow 790: {10 64 0} Flow 857: {11 105 0} Flow 858: {105 61 0} {61 48 0} {48 4 0} Flow 859: {56 3 0} Flow 862: {47 6 0} Flow 863: {105 76 0} {76 73 0} {73 82 0} {82 7 0} Flow 866: {11 12 0} Flow 867: {14 13 0} Flow 870: {11 17 0} Flow 871: {85 15 0} {15 18 0} Flow 881: {37 31 0} Flow 882: {37 32 0} Flow 923: {31 78 0} Flow 925: {77 101 0} {101 103 0} Flow 941: {90 97 0} Flow 942: {61 98 0} Flow 943: {105 100 0} {100 99 0} Flow 947: {75 104 0} Flow 951: {108 109 0} Flow 956: {12 105 0} Flow 963: {12 11 0} Flow 964: {12 14 0} Flow 965: {12 17 0} Flow 1038: {13 20 0} Flow 1039: {20 105 0} Flow 1045: {13 14 0} {14 11 0} Flow 1046: {14 12 0} Flow 1119: {31 104 0} Flow 1216: {15 85 0} {85 48 0} Flow 1227: {50 55 0} Flow 1241: {18 44 0} Flow 1244: {44 46 0} Flow 1253: {49 58 0} Flow 1296: {16 48 0} Flow 1298: {98 61 0} Flow 1304: {17 105 0} Flow 1312: {17 11 0} Flow 1313: {17 12 0} Flow 1399: {19 20 0} Flow 1560: {21 22 0} {22 27 0} {27 26 0} {26 25 0} {95 94 0} {94 89 0} Flow 1561: {25 96 0} {96 95 0} Flow 1562: {26 90 0} {90 91 0} {91 55 0} {55 112 0} Flow 1574: {21 23 0} {23 84 0} {84 28 0} Flow 1582: {42 43 0} Flow 1587: {93 92 0} {92 51 0} Flow 1588: {51 52 0} Flow 1589: {51 53 0} {53 54 0} Flow 1591: {95 56 0} Flow 1593: {106 59 0} Flow 1698: {28 25 0} Flow 1709: {23 21 0} Flow 1784: {24 21 0} Flow 1931: {84 23 0} Flow 2000: {29 26 0} Flow 2061: {30 93 0} {52 48 0} Flow 2067: {54 61 0} Flow 2071: {30 29 0} Flow 2131: {78 82 0} Flow 2133: {37 20 0} Flow 2144: {32 113 0} {113 100 0} {99 98 0} {98 16 0} Flow 2195: {104 75 0} Flow 2196: {75 76 0} Flow 2197: {101 77 0} Flow 2231: {32 31 0} Flow 2232: {99 74 0} Flow 2239: {100 105 0} Flow 2241: {32 37 0} Flow 2245: {74 48 0} Flow 2293: {113 75 0} Flow 2327: {33 35 0} {35 36 0} {36 19 0} Flow 2329: {34 33 0} Flow 2572: {37 38 0} Flow 2630: {39 34 0} Flow 2717: {40 39 0} Flow 2718: {41 50 0} Flow 2727: {43 44 0} {46 4 0} Flow 2730: {42 41 0} Flow 2765: {55 56 0} Flow 2888: {45 48 0} Flow 3039: {93 30 0} {30 143 0} 
Flow 3106: {100 213 0} 
Flow 3120: {49 50 0} Flow 3312: {58 49 0} Flow 3321: {58 57 0} {57 55 0} Flow 3447: {53 51 0} Flow 3521: {98 99 0} Flow 3535: {54 53 0} Flow 3715: {54 60 0} Flow 3762: {59 62 0} {62 83 0} {83 84 0} Flow 3776: {59 106 0} {106 24 0} Flow 3855: {60 61 0} Flow 3869: {60 54 0} Flow 4131: {64 9 0} Flow 4211: {64 1 0} Flow 4218: {65 1 0} Flow 4221: {67 86 0} Flow 4276: {66 2 0} Flow 4279: {66 65 0} Flow 4391: {86 64 0} Flow 4398: {69 72 0} Flow 4432: {68 65 0} Flow 4435: {68 67 0} Flow 4504: {72 71 0} {71 63 0} Flow 4520: {69 70 0} {70 67 0} Flow 4908: {104 31 0} Flow 4949: {104 78 0} Flow 4992: {77 76 0} Flow 5012: {101 78 0} Flow 5066: {103 102 0} Flow 5179: {79 102 0} {102 82 0} Flow 5222: {103 101 0} Flow 5248: {80 103 0} Flow 5252: {81 63 0} Flow 5253: {81 7 0} Flow 5352: {15 128 0} 
Flow 5360: {23 136 0} 
Flow 5366: {26 29 0} {29 142 0} 
Flow 5389: {53 166 0} 
Flow 5773: {87 5 0} Flow 5982: {97 90 0} Flow 6044: {97 96 0} Flow 7033: {107 106 0} Flow 7115: {109 110 0} Flow 7119: {108 107 0} Flow 7187: {110 111 0} Flow 7190: {111 59 0} Flow 7193: {109 108 0} Time taken running everything: 0 seconds
