networks/zoo_226_7597/zoo_226_7597-lower.sol
<?xml version = "1.0" encoding="UTF-8" standalone="yes"?>
<CPLEXSolution version="1.2">
 <header
   problemName="networks/zoo_226_7597/zoo_226_7597-lower.lp"
   solutionName="incumbent"
   solutionIndex="-1"
   objectiveValue="111"
   solutionTypeValue="3"
   solutionTypeString="primal"
   solutionStatusValue="101"
   solutionStatusString="integer optimal solution"
   solutionMethodString="mip"
   primalFeasible="1"
   dualFeasible="1"
   MIPNodes="0"
   MIPIterations="0"
   writeLevel="3"/>
 <quality
   epInt="1.0000000000000001e-05"
   epRHS="9.9999999999999995e-07"
   maxIntInfeas="0"
   maxPrimalInfeas="0"
   maxX="1"
   maxSlack="1"/>
 <variables>
  <variable name="Y(1,2)" index="1" value="1"/>
  <variable name="Y(2,3)" index="226" value="1"/>
  <variable name="Y(3,4)" index="451" value="1"/>
  <variable name="Y(4,5)" index="676" value="1"/>
  <variable name="Y(5,6)" index="901" value="1"/>
  <variable name="Y(6,7)" index="1126" value="1"/>
  <variable name="Y(7,8)" index="1351" value="1"/>
  <variable name="Y(8,9)" index="1576" value="1"/>
  <variable name="Y(9,11)" index="1802" value="1"/>
  <variable name="Y(10,12)" index="2027" value="1"/>
  <variable name="Y(11,13)" index="2252" value="1"/>
  <variable name="Y(12,14)" index="2477" value="1"/>
  <variable name="Y(13,16)" index="2703" value="1"/>
  <variable name="Y(14,17)" index="2928" value="1"/>
  <variable name="Y(15,18)" index="3153" value="1"/>
  <variable name="Y(16,19)" index="3378" value="1"/>
  <variable name="Y(17,20)" index="3603" value="1"/>
  <variable name="Y(18,21)" index="3828" value="1"/>
  <variable name="Y(19,22)" index="4053" value="1"/>
  <variable name="Y(20,24)" index="4279" value="1"/>
  <variable name="Y(21,25)" index="4504" value="1"/>
  <variable name="Y(22,26)" index="4729" value="1"/>
  <variable name="Y(23,27)" index="4954" value="1"/>
  <variable name="Y(24,28)" index="5179" value="1"/>
  <variable name="Y(25,31)" index="5406" value="1"/>
  <variable name="Y(26,32)" index="5631" value="1"/>
  <variable name="Y(27,33)" index="5856" value="1"/>
  <variable name="Y(28,34)" index="6081" value="1"/>
  <variable name="Y(29,35)" index="6306" value="1"/>
  <variable name="Y(30,36)" index="6531" value="1"/>
  <variable name="Y(31,37)" index="6756" value="1"/>
  <variable name="Y(32,38)" index="6981" value="1"/>
  <variable name="Y(33,40)" index="7207" value="1"/>
  <variable name="Y(34,41)" index="7432" value="1"/>
  <variable name="Y(35,42)" index="7657" value="1"/>
  <variable name="Y(36,43)" index="7882" value="1"/>
  <variable name="Y(37,44)" index="8107" value="1"/>
  <variable name="Y(38,45)" index="8332" value="1"/>
  <variable name="Y(39,46)" index="8557" value="1"/>
  <variable name="Y(40,47)" index="8782" value="1"/>
  <variable name="Y(41,48)" index="9007" value="1"/>
  <variable name="Y(42,49)" index="9232" value="1"/>
  <variable name="Y(43,50)" index="9457" value="1"/>
  <variable name="Y(44,51)" index="9682" value="1"/>
  <variable name="Y(45,52)" index="9907" value="1"/>
  <variable name="Y(46,54)" index="10133" value="1"/>
  <variable name="Y(47,55)" index="10358" value="1"/>
  <variable name="Y(48,56)" index="10583" value="1"/>
  <variable name="Y(49,57)" index="10808" value="1"/>
  <variable name="Y(50,58)" index="11033" value="1"/>
  <variable name="Y(51,59)" index="11258" value="1"/>
  <variable name="Y(52,60)" index="11483" value="1"/>
  <variable name="Y(53,61)" index="11708" value="1"/>
  <variable name="Y(54,62)" index="11933" value="1"/>
  <variable name="Y(55,63)" index="12158" value="1"/>
  <variable name="Y(56,64)" index="12383" value="1"/>
  <variable name="Y(57,65)" index="12608" value="1"/>
  <variable name="Y(58,66)" index="12833" value="1"/>
  <variable name="Y(59,67)" index="13058" value="1"/>
  <variable name="Y(60,68)" index="13283" value="1"/>
  <variable name="Y(61,69)" index="13508" value="1"/>
  <variable name="Y(62,70)" index="13733" value="1"/>
  <variable name="Y(63,71)" index="13958" value="1"/>
  <variable name="Y(64,72)" index="14183" value="1"/>
  <variable name="Y(65,73)" index="14408" value="1"/>
  <variable name="Y(66,74)" index="14633" value="1"/>
  <variable name="Y(67,75)" index="14858" value="1"/>
  <variable name="Y(68,76)" index="15083" value="1"/>
  <variable name="Y(69,77)" index="15308" value="1"/>
  <variable name="Y(70,78)" index="15533" value="1"/>
  <variable name="Y(71,79)" index="15758" value="1"/>
  <variable name="Y(72,80)" index="15983" value="1"/>
  <variable name="Y(73,81)" index="16208" value="1"/>
  <variable name="Y(74,82)" index="16433" value="1"/>
  <variable name="Y(75,83)" index="16658" value="1"/>
  <variable name="Y(76,84)" index="16883" value="1"/>
  <variable name="Y(77,85)" index="17108" value="1"/>
  <variable name="Y(78,86)" index="17333" value="1"/>
  <variable name="Y(79,87)" index="17558" value="1"/>
  <variable name="Y(80,88)" index="17783" value="1"/>
  <variable name="Y(81,89)" index="18008" value="1"/>
  <variable name="Y(82,90)" index="18233" value="1"/>
  <variable name="Y(83,91)" index="18458" value="1"/>
  <variable name="Y(84,92)" index="18683" value="1"/>
  <variable name="Y(85,93)" index="18908" value="1"/>
  <variable name="Y(86,94)" index="19133" value="1"/>
  <variable name="Y(87,95)" index="19358" value="1"/>
  <variable name="Y(88,96)" index="19583" value="1"/>
  <variable name="Y(89,97)" index="19808" value="1"/>
  <variable name="Y(90,98)" index="20033" value="1"/>
  <variable name="Y(91,99)" index="20258" value="1"/>
  <variable name="Y(92,101)" index="20484" value="1"/>
  <variable name="Y(93,102)" index="20709" value="1"/>
  <variable name="Y(94,103)" index="20934" value="1"/>
  <variable name="Y(95,104)" index="21159" value="1"/>
  <variable name="Y(96,105)" index="21384" value="1"/>
  <variable name="Y(97,106)" index="21609" value="1"/>
  <variable name="Y(98,107)" index="21834" value="1"/>
  <variable name="Y(99,109)" index="22060" value="1"/>
  <variable name="Y(100,110)" index="22285" value="1"/>
  <variable name="Y(101,111)" index="22510" value="1"/>
  <variable name="Y(102,112)" index="22735" value="1"/>
  <variable name="Y(103,113)" index="22960" value="1"/>
  <variable name="Y(277,1)" index="61824" value="1"/>
  <variable name="Y(375,108)" index="83883" value="1"/>
  <variable name="Y(3039,30)" index="680541" value="1"/>
  <variable name="Y(3106,100)" index="695619" value="1"/>
  <variable name="Y(5352,15)" index="1198638" value="1"/>
  <variable name="Y(5360,23)" index="1200438" value="1"/>
  <variable name="Y(5366,29)" index="1201788" value="1"/>
  <variable name="Y(5389,53)" index="1206964" value="1"/>
  <variable name="X(1,2,1)" index="1701728" value="1"/>
  <variable name="X(1,9,2)" index="1709326" value="1"/>
  <variable name="X(1,64,6)" index="1716927" value="1"/>
  <variable name="X(1,65,57)" index="1724575" value="1"/>
  <variable name="X(1,114,277)" index="1732392" value="1"/>
  <variable name="X(2,1,104)" index="1739816" value="1"/>
  <variable name="X(2,66,150)" index="1747459" value="1"/>
  <variable name="X(2,115,1)" index="1754907" value="1"/>
  <variable name="X(3,56,197)" index="1762700" value="1"/>
  <variable name="X(3,88,190)" index="1770290" value="1"/>
  <variable name="X(3,116,2)" index="1777699" value="1"/>
  <variable name="X(4,5,192)" index="1785486" value="1"/>
  <variable name="X(4,46,15)" index="1792906" value="1"/>
  <variable name="X(4,48,10)" index="1800498" value="1"/>
  <variable name="X(4,87,190)" index="1808275" value="1"/>
  <variable name="X(4,89,18)" index="1815700" value="1"/>
  <variable name="X(4,117,3)" index="1823282" value="1"/>
  <variable name="X(5,4,382)" index="1831258" value="1"/>
  <variable name="X(5,6,5)" index="1838478" value="1"/>
  <variable name="X(5,7,194)" index="1846264" value="1"/>
  <variable name="X(5,8,195)" index="1853862" value="1"/>
  <variable name="X(5,87,381)" index="1861645" value="1"/>
  <variable name="X(5,118,4)" index="1868865" value="1"/>
  <variable name="X(6,5,473)" index="1876931" value="1"/>
  <variable name="X(6,47,40)" index="1884095" value="1"/>
  <variable name="X(6,119,5)" index="1891657" value="1"/>
  <variable name="X(7,5,559)" index="1899808" value="1"/>
  <variable name="X(7,63,238)" index="1907084" value="1"/>
  <variable name="X(7,81,251)" index="1914694" value="1"/>
  <variable name="X(7,82,25)" index="1922065" value="1"/>
  <variable name="X(7,120,6)" index="1929643" value="1"/>
  <variable name="X(8,5,4)" index="1937238" value="1"/>
  <variable name="X(8,9,675)" index="1945506" value="1"/>
  <variable name="X(8,121,7)" index="1952435" value="1"/>
  <variable name="X(9,1,190)" index="1960215" value="1"/>
  <variable name="X(9,8,4)" index="1967626" value="1"/>
  <variable name="X(9,64,235)" index="1975454" value="1"/>
  <variable name="X(9,87,2)" index="1982818" value="1"/>
  <variable name="X(9,122,8)" index="1990421" value="1"/>
  <variable name="X(10,1,787)" index="1998797" value="1"/>
  <variable name="X(10,64,790)" index="2006397" value="1"/>
  <variable name="X(11,12,866)" index="2014070" value="1"/>
  <variable name="X(11,14,12)" index="2020813" value="1"/>
  <variable name="X(11,17,870)" index="2029268" value="1"/>
  <variable name="X(11,105,857)" index="2036852" value="1"/>
  <variable name="X(11,124,9)" index="2043601" value="1"/>
  <variable name="X(12,11,963)" index="2052152" value="1"/>
  <variable name="X(12,14,964)" index="2059750" value="1"/>
  <variable name="X(12,17,965)" index="2067348" value="1"/>
  <variable name="X(12,105,956)" index="2074936" value="1"/>
  <variable name="X(12,125,10)" index="2081587" value="1"/>
  <variable name="X(13,14,1045)" index="2090219" value="1"/>
  <variable name="X(13,20,1038)" index="2097809" value="1"/>
  <variable name="X(13,126,11)" index="2104379" value="1"/>
  <variable name="X(14,11,1045)" index="2113010" value="1"/>
  <variable name="X(14,12,1046)" index="2120608" value="1"/>
  <variable name="X(14,13,867)" index="2128026" value="1"/>
  <variable name="X(14,127,12)" index="2134768" value="1"/>
  <variable name="X(15,18,871)" index="2143224" value="1"/>
  <variable name="X(15,85,1216)" index="2151166" value="1"/>
  <variable name="X(15,128,5352)" index="2162899" value="1"/>
  <variable name="X(16,48,1296)" index="2166440" value="1"/>
  <variable name="X(16,98,90)" index="2172831" value="1"/>
  <variable name="X(16,129,13)" index="2180351" value="1"/>
  <variable name="X(17,11,1312)" index="2189247" value="1"/>
  <variable name="X(17,12,1313)" index="2196845" value="1"/>
  <variable name="X(17,105,1304)" index="2204433" value="1"/>
  <variable name="X(17,130,14)" index="2210740" value="1"/>
  <variable name="X(18,44,1241)" index="2219564" value="1"/>
  <variable name="X(18,131,15)" index="2225935" value="1"/>
  <variable name="X(19,20,1399)" index="2234916" value="1"/>
  <variable name="X(19,36,27)" index="2241141" value="1"/>
  <variable name="X(19,132,16)" index="2248727" value="1"/>
  <variable name="X(20,13,11)" index="2256319" value="1"/>
  <variable name="X(20,19,16)" index="2263921" value="1"/>
  <variable name="X(20,37,307)" index="2271809" value="1"/>
  <variable name="X(20,38,32)" index="2279131" value="1"/>
  <variable name="X(20,105,1039)" index="2287735" value="1"/>
  <variable name="X(20,133,17)" index="2294310" value="1"/>
  <variable name="X(21,22,1560)" index="2303450" value="1"/>
  <variable name="X(21,23,1574)" index="2311061" value="1"/>
  <variable name="X(21,24,20)" index="2317104" value="1"/>
  <variable name="X(21,134,18)" index="2324699" value="1"/>
  <variable name="X(22,21,18)" index="2332296" value="1"/>
  <variable name="X(22,27,1560)" index="2341435" value="1"/>
  <variable name="X(22,135,19)" index="2347491" value="1"/>
  <variable name="X(23,21,1709)" index="2356778" value="1"/>
  <variable name="X(23,84,1574)" index="2364240" value="1"/>
  <variable name="X(23,136,5360)" index="2375623" value="1"/>
  <variable name="X(24,21,1784)" index="2379644" value="1"/>
  <variable name="X(24,106,97)" index="2385554" value="1"/>
  <variable name="X(24,137,20)" index="2393074" value="1"/>
  <variable name="X(25,26,18)" index="2400669" value="1"/>
  <variable name="X(25,28,51)" index="2408299" value="1"/>
  <variable name="X(25,96,1561)" index="2417406" value="1"/>
  <variable name="X(25,138,21)" index="2423463" value="1"/>
  <variable name="X(26,25,1560)" index="2432599" value="1"/>
  <variable name="X(26,27,18)" index="2438654" value="1"/>
  <variable name="X(26,29,5366)" index="2451599" value="1"/>
  <variable name="X(26,90,1562)" index="2455392" value="1"/>
  <variable name="X(26,93,262)" index="2461689" value="1"/>
  <variable name="X(26,139,22)" index="2469046" value="1"/>
  <variable name="X(27,22,18)" index="2476639" value="1"/>
  <variable name="X(27,26,1560)" index="2485778" value="1"/>
  <variable name="X(27,140,23)" index="2491838" value="1"/>
  <variable name="X(28,25,1698)" index="2501110" value="1"/>
  <variable name="X(28,84,51)" index="2507060" value="1"/>
  <variable name="X(28,141,24)" index="2514630" value="1"/>
  <variable name="X(29,26,2000)" index="2524203" value="1"/>
  <variable name="X(29,142,5366)" index="2535166" value="1"/>
  <variable name="X(30,29,2071)" index="2539468" value="1"/>
  <variable name="X(30,93,2061)" index="2547055" value="1"/>
  <variable name="X(30,143,3039)" index="2555630" value="1"/>
  <variable name="X(31,32,26)" index="2560214" value="1"/>
  <variable name="X(31,37,31)" index="2567816" value="1"/>
  <variable name="X(31,78,923)" index="2576305" value="1"/>
  <variable name="X(31,104,1119)" index="2584098" value="1"/>
  <variable name="X(31,144,25)" index="2590601" value="1"/>
  <variable name="X(32,31,2231)" index="2600404" value="1"/>
  <variable name="X(32,37,2241)" index="2608011" value="1"/>
  <variable name="X(32,38,590)" index="2613957" value="1"/>
  <variable name="X(32,113,2144)" index="2623108" value="1"/>
  <variable name="X(32,145,26)" index="2628587" value="1"/>
  <variable name="X(33,34,28)" index="2636186" value="1"/>
  <variable name="X(33,35,2327)" index="2646082" value="1"/>
  <variable name="X(33,146,27)" index="2651379" value="1"/>
  <variable name="X(34,33,2329)" index="2661278" value="1"/>
  <variable name="X(34,39,33)" index="2666579" value="1"/>
  <variable name="X(34,147,28)" index="2674171" value="1"/>
  <variable name="X(35,33,27)" index="2681767" value="1"/>
  <variable name="X(35,36,2327)" index="2691664" value="1"/>
  <variable name="X(35,148,29)" index="2696963" value="1"/>
  <variable name="X(36,19,2327)" index="2706858" value="1"/>
  <variable name="X(36,35,27)" index="2712155" value="1"/>
  <variable name="X(36,149,30)" index="2719755" value="1"/>
  <variable name="X(37,20,2133)" index="2729455" value="1"/>
  <variable name="X(37,31,881)" index="2735800" value="1"/>
  <variable name="X(37,32,882)" index="2743398" value="1"/>
  <variable name="X(37,38,2572)" index="2752685" value="1"/>
  <variable name="X(37,150,31)" index="2757741" value="1"/>
  <variable name="X(38,151,32)" index="2765339" value="1"/>
  <variable name="X(39,34,2630)" index="2775534" value="1"/>
  <variable name="X(39,40,33)" index="2780534" value="1"/>
  <variable name="X(40,39,2717)" index="2790815" value="1"/>
  <variable name="X(40,153,33)" index="2795728" value="1"/>
  <variable name="X(41,42,220)" index="2803512" value="1"/>
  <variable name="X(41,50,2718)" index="2813607" value="1"/>
  <variable name="X(41,154,34)" index="2818520" value="1"/>
  <variable name="X(42,41,2730)" index="2828813" value="1"/>
  <variable name="X(42,43,1582)" index="2835262" value="1"/>
  <variable name="X(42,155,35)" index="2841312" value="1"/>
  <variable name="X(43,42,35)" index="2848909" value="1"/>
  <variable name="X(43,44,2727)" index="2859198" value="1"/>
  <variable name="X(43,156,36)" index="2864104" value="1"/>
  <variable name="X(44,18,15)" index="2871680" value="1"/>
  <variable name="X(44,43,35)" index="2879297" value="1"/>
  <variable name="X(44,46,1244)" index="2888103" value="1"/>
  <variable name="X(44,157,37)" index="2894493" value="1"/>
  <variable name="X(45,48,2888)" index="2904941" value="1"/>
  <variable name="X(45,158,38)" index="2909688" value="1"/>
  <variable name="X(46,4,2727)" index="2919974" value="1"/>
  <variable name="X(46,44,15)" index="2924859" value="1"/>
  <variable name="X(46,159,39)" index="2932480" value="1"/>
  <variable name="X(47,6,862)" index="2940900" value="1"/>
  <variable name="X(47,48,479)" index="2948114" value="1"/>
  <variable name="X(47,160,40)" index="2955272" value="1"/>
  <variable name="X(48,4,858)" index="2963687" value="1"/>
  <variable name="X(48,16,13)" index="2970439" value="1"/>
  <variable name="X(48,45,38)" index="2978061" value="1"/>
  <variable name="X(48,47,224)" index="2985844" value="1"/>
  <variable name="X(48,52,45)" index="2993262" value="1"/>
  <variable name="X(48,61,10)" index="3000824" value="1"/>
  <variable name="X(48,74,91)" index="3008502" value="1"/>
  <variable name="X(48,85,34)" index="3016042" value="1"/>
  <variable name="X(48,112,48)" index="3023653" value="1"/>
  <variable name="X(48,161,41)" index="3031243" value="1"/>
  <variable name="X(49,50,3120)" index="3041919" value="1"/>
  <variable name="X(49,58,1253)" index="3047649" value="1"/>
  <variable name="X(49,162,42)" index="3054035" value="1"/>
  <variable name="X(50,41,34)" index="3061624" value="1"/>
  <variable name="X(50,49,42)" index="3069229" value="1"/>
  <variable name="X(50,55,1227)" index="3078011" value="1"/>
  <variable name="X(50,85,255)" index="3084636" value="1"/>
  <variable name="X(50,163,43)" index="3092021" value="1"/>
  <variable name="X(51,52,1588)" index="3101163" value="1"/>
  <variable name="X(51,53,1589)" index="3108761" value="1"/>
  <variable name="X(51,58,50)" index="3114819" value="1"/>
  <variable name="X(51,92,84)" index="3122450" value="1"/>
  <variable name="X(51,164,44)" index="3130007" value="1"/>
  <variable name="X(52,48,2061)" index="3139621" value="1"/>
  <variable name="X(52,51,44)" index="3145201" value="1"/>
  <variable name="X(52,165,45)" index="3152799" value="1"/>
  <variable name="X(53,51,3447)" index="3163798" value="1"/>
  <variable name="X(53,54,1589)" index="3169537" value="1"/>
  <variable name="X(53,166,5389)" index="3180934" value="1"/>
  <variable name="X(54,53,3535)" index="3186677" value="1"/>
  <variable name="X(54,60,3715)" index="3194454" value="1"/>
  <variable name="X(54,61,2067)" index="3200403" value="1"/>
  <variable name="X(54,167,46)" index="3205979" value="1"/>
  <variable name="X(55,50,219)" index="3213749" value="1"/>
  <variable name="X(55,56,2765)" index="3223892" value="1"/>
  <variable name="X(55,57,49)" index="3228773" value="1"/>
  <variable name="X(55,91,82)" index="3236403" value="1"/>
  <variable name="X(55,112,1562)" index="3245480" value="1"/>
  <variable name="X(55,168,47)" index="3251562" value="1"/>
  <variable name="X(56,3,859)" index="3259971" value="1"/>
  <variable name="X(56,55,204)" index="3266913" value="1"/>
  <variable name="X(56,95,207)" index="3274513" value="1"/>
  <variable name="X(56,112,197)" index="3282100" value="1"/>
  <variable name="X(56,169,48)" index="3289548" value="1"/>
  <variable name="X(57,55,3321)" index="3300418" value="1"/>
  <variable name="X(57,58,227)" index="3304921" value="1"/>
  <variable name="X(57,170,49)" index="3312340" value="1"/>
  <variable name="X(58,49,3312)" index="3323200" value="1"/>
  <variable name="X(58,51,227)" index="3327712" value="1"/>
  <variable name="X(58,57,3321)" index="3338403" value="1"/>
  <variable name="X(58,171,50)" index="3342729" value="1"/>
  <variable name="X(59,62,3762)" index="3354038" value="1"/>
  <variable name="X(59,106,3776)" index="3361649" value="1"/>
  <variable name="X(59,111,99)" index="3365569" value="1"/>
  <variable name="X(59,172,51)" index="3373118" value="1"/>
  <variable name="X(60,54,3869)" index="3384533" value="1"/>
  <variable name="X(60,61,3855)" index="3392116" value="1"/>
  <variable name="X(60,173,52)" index="3395910" value="1"/>
  <variable name="X(61,48,858)" index="3404313" value="1"/>
  <variable name="X(61,54,46)" index="3411098" value="1"/>
  <variable name="X(61,60,52)" index="3418701" value="1"/>
  <variable name="X(61,98,942)" index="3427188" value="1"/>
  <variable name="X(61,105,10)" index="3433853" value="1"/>
  <variable name="X(61,174,53)" index="3441493" value="1"/>
  <variable name="X(62,59,51)" index="3449088" value="1"/>
  <variable name="X(62,83,3762)" index="3460396" value="1"/>
  <variable name="X(62,175,54)" index="3464285" value="1"/>
  <variable name="X(63,7,6)" index="3471834" value="1"/>
  <variable name="X(63,71,240)" index="3479665" value="1"/>
  <variable name="X(63,81,73)" index="3487095" value="1"/>
  <variable name="X(63,86,238)" index="3494857" value="1"/>
  <variable name="X(63,176,55)" index="3502271" value="1"/>
  <variable name="X(64,1,4211)" index="3514024" value="1"/>
  <variable name="X(64,9,4131)" index="3521541" value="1"/>
  <variable name="X(64,71,63)" index="3525070" value="1"/>
  <variable name="X(64,86,6)" index="3532610" value="1"/>
  <variable name="X(64,177,56)" index="3540257" value="1"/>
  <variable name="X(65,1,4218)" index="3552016" value="1"/>
  <variable name="X(65,66,58)" index="3555453" value="1"/>
  <variable name="X(65,67,59)" index="3563051" value="1"/>
  <variable name="X(65,68,60)" index="3570649" value="1"/>
  <variable name="X(65,178,57)" index="3578243" value="1"/>
  <variable name="X(66,2,4276)" index="3590059" value="1"/>
  <variable name="X(66,65,4279)" index="3597659" value="1"/>
  <variable name="X(66,179,58)" index="3601035" value="1"/>
  <variable name="X(67,65,615)" index="3609189" value="1"/>
  <variable name="X(67,68,433)" index="3616604" value="1"/>
  <variable name="X(67,70,61)" index="3623829" value="1"/>
  <variable name="X(67,86,4221)" index="3635586" value="1"/>
  <variable name="X(67,180,59)" index="3639021" value="1"/>
  <variable name="X(68,65,4432)" index="3650991" value="1"/>
  <variable name="X(68,67,4435)" index="3658591" value="1"/>
  <variable name="X(68,181,60)" index="3661813" value="1"/>
  <variable name="X(69,70,4520)" index="3673870" value="1"/>
  <variable name="X(69,72,4398)" index="3681345" value="1"/>
  <variable name="X(69,182,61)" index="3684605" value="1"/>
  <variable name="X(70,67,4520)" index="3696661" value="1"/>
  <variable name="X(70,69,61)" index="3699799" value="1"/>
  <variable name="X(70,183,62)" index="3707397" value="1"/>
  <variable name="X(71,63,4504)" index="3719436" value="1"/>
  <variable name="X(71,64,614)" index="3723143" value="1"/>
  <variable name="X(71,72,64)" index="3730190" value="1"/>
  <variable name="X(71,184,63)" index="3737786" value="1"/>
  <variable name="X(72,69,240)" index="3745560" value="1"/>
  <variable name="X(72,71,4504)" index="3757421" value="1"/>
  <variable name="X(72,185,64)" index="3760578" value="1"/>
  <variable name="X(73,74,624)" index="3768735" value="1"/>
  <variable name="X(73,76,67)" index="3775775" value="1"/>
  <variable name="X(73,82,863)" index="3784168" value="1"/>
  <variable name="X(73,186,65)" index="3790967" value="1"/>
  <variable name="X(74,48,2245)" index="3800744" value="1"/>
  <variable name="X(74,73,244)" index="3806340" value="1"/>
  <variable name="X(74,99,91)" index="3813784" value="1"/>
  <variable name="X(74,187,66)" index="3821356" value="1"/>
  <variable name="X(75,76,2196)" index="3831083" value="1"/>
  <variable name="X(75,104,947)" index="3837431" value="1"/>
  <variable name="X(75,113,662)" index="3844743" value="1"/>
  <variable name="X(75,188,67)" index="3851745" value="1"/>
  <variable name="X(76,73,863)" index="3860138" value="1"/>
  <variable name="X(76,75,67)" index="3866939" value="1"/>
  <variable name="X(76,77,69)" index="3874538" value="1"/>
  <variable name="X(76,105,567)" index="3882633" value="1"/>
  <variable name="X(76,189,68)" index="3889731" value="1"/>
  <variable name="X(77,76,4992)" index="3902252" value="1"/>
  <variable name="X(77,101,925)" index="3905782" value="1"/>
  <variable name="X(77,190,69)" index="3912523" value="1"/>
  <variable name="X(78,31,25)" index="3920076" value="1"/>
  <variable name="X(78,82,2131)" index="3929779" value="1"/>
  <variable name="X(78,101,92)" index="3935337" value="1"/>
  <variable name="X(78,104,95)" index="3942937" value="1"/>
  <variable name="X(78,191,70)" index="3950509" value="1"/>
  <variable name="X(79,102,5179)" index="3963215" value="1"/>
  <variable name="X(79,192,71)" index="3965704" value="1"/>
  <variable name="X(80,103,5248)" index="3978478" value="1"/>
  <variable name="X(80,193,72)" index="3980899" value="1"/>
  <variable name="X(81,7,5253)" index="3993677" value="1"/>
  <variable name="X(81,63,5252)" index="4001273" value="1"/>
  <variable name="X(81,194,73)" index="4003691" value="1"/>
  <variable name="X(82,7,863)" index="4012078" value="1"/>
  <variable name="X(82,73,65)" index="4018877" value="1"/>
  <variable name="X(82,78,25)" index="4026434" value="1"/>
  <variable name="X(82,102,71)" index="4034077" value="1"/>
  <variable name="X(82,195,74)" index="4041677" value="1"/>
  <variable name="X(83,62,51)" index="4049251" value="1"/>
  <variable name="X(83,84,3762)" index="4060559" value="1"/>
  <variable name="X(83,196,75)" index="4064469" value="1"/>
  <variable name="X(84,23,1931)" index="4073922" value="1"/>
  <variable name="X(84,28,1574)" index="4081162" value="1"/>
  <variable name="X(84,83,51)" index="4087236" value="1"/>
  <variable name="X(84,197,76)" index="4094858" value="1"/>
  <variable name="X(85,15,871)" index="4103250" value="1"/>
  <variable name="X(85,48,1216)" index="4111192" value="1"/>
  <variable name="X(85,50,34)" index="4117607" value="1"/>
  <variable name="X(85,198,77)" index="4125247" value="1"/>
  <variable name="X(86,63,6)" index="4132773" value="1"/>
  <variable name="X(86,64,4391)" index="4144755" value="1"/>
  <variable name="X(86,67,238)" index="4148199" value="1"/>
  <variable name="X(86,199,78)" index="4155636" value="1"/>
  <variable name="X(87,4,3)" index="4163158" value="1"/>
  <variable name="X(87,5,5773)" index="4176525" value="1"/>
  <variable name="X(87,9,190)" index="4178539" value="1"/>
  <variable name="X(87,200,79)" index="4186025" value="1"/>
  <variable name="X(88,3,2)" index="4193545" value="1"/>
  <variable name="X(88,89,190)" index="4201330" value="1"/>
  <variable name="X(88,201,80)" index="4208817" value="1"/>
  <variable name="X(89,4,190)" index="4216524" value="1"/>
  <variable name="X(89,88,2)" index="4223933" value="1"/>
  <variable name="X(89,94,18)" index="4231546" value="1"/>
  <variable name="X(89,202,81)" index="4239206" value="1"/>
  <variable name="X(90,26,204)" index="4246926" value="1"/>
  <variable name="X(90,91,1562)" index="4255881" value="1"/>
  <variable name="X(90,97,941)" index="4262857" value="1"/>
  <variable name="X(90,203,82)" index="4269595" value="1"/>
  <variable name="X(91,55,1562)" index="4278672" value="1"/>
  <variable name="X(91,90,82)" index="4284789" value="1"/>
  <variable name="X(91,204,83)" index="4292387" value="1"/>
  <variable name="X(92,51,1587)" index="4301488" value="1"/>
  <variable name="X(92,93,85)" index="4307583" value="1"/>
  <variable name="X(92,205,84)" index="4315179" value="1"/>
  <variable name="X(93,26,486)" index="4323178" value="1"/>
  <variable name="X(93,30,3039)" index="4333328" value="1"/>
  <variable name="X(93,92,1587)" index="4339473" value="1"/>
  <variable name="X(93,206,85)" index="4345568" value="1"/>
  <variable name="X(94,89,1560)" index="4354640" value="1"/>
  <variable name="X(94,95,18)" index="4360695" value="1"/>
  <variable name="X(94,207,86)" index="4368360" value="1"/>
  <variable name="X(95,56,1591)" index="4377462" value="1"/>
  <variable name="X(95,94,1560)" index="4385028" value="1"/>
  <variable name="X(95,96,19)" index="4391084" value="1"/>
  <variable name="X(95,208,87)" index="4398749" value="1"/>
  <variable name="X(96,25,19)" index="4406278" value="1"/>
  <variable name="X(96,95,1561)" index="4415417" value="1"/>
  <variable name="X(96,97,89)" index="4421542" value="1"/>
  <variable name="X(96,209,88)" index="4429138" value="1"/>
  <variable name="X(97,90,5982)" index="4442629" value="1"/>
  <variable name="X(97,96,6044)" index="4450288" value="1"/>
  <variable name="X(97,210,89)" index="4451930" value="1"/>
  <variable name="X(98,16,2144)" index="4461582" value="1"/>
  <variable name="X(98,61,1298)" index="4468333" value="1"/>
  <variable name="X(98,99,3521)" index="4478153" value="1"/>
  <variable name="X(98,211,90)" index="4482319" value="1"/>
  <variable name="X(99,74,2232)" index="4492058" value="1"/>
  <variable name="X(99,98,2144)" index="4499567" value="1"/>
  <variable name="X(99,100,103)" index="4505123" value="1"/>
  <variable name="X(99,212,91)" index="4512708" value="1"/>
  <variable name="X(100,99,943)" index="4521157" value="1"/>
  <variable name="X(100,105,2239)" index="4530050" value="1"/>
  <variable name="X(100,113,103)" index="4535511" value="1"/>
  <variable name="X(100,213,3106)" index="4546111" value="1"/>
  <variable name="X(101,77,2197)" index="4552799" value="1"/>
  <variable name="X(101,78,5012)" index="4563211" value="1"/>
  <variable name="X(101,103,925)" index="4566721" value="1"/>
  <variable name="X(101,214,92)" index="4573485" value="1"/>
  <variable name="X(102,79,71)" index="4581061" value="1"/>
  <variable name="X(102,82,5179)" index="4593766" value="1"/>
  <variable name="X(102,103,72)" index="4596256" value="1"/>
  <variable name="X(102,215,93)" index="4603874" value="1"/>
  <variable name="X(103,80,72)" index="4611450" value="1"/>
  <variable name="X(103,101,5222)" index="4624197" value="1"/>
  <variable name="X(103,102,5066)" index="4631638" value="1"/>
  <variable name="X(103,216,94)" index="4634263" value="1"/>
  <variable name="X(104,31,4908)" index="4646674" value="1"/>
  <variable name="X(104,75,2195)" index="4651558" value="1"/>
  <variable name="X(104,78,4949)" index="4661909" value="1"/>
  <variable name="X(104,217,95)" index="4664652" value="1"/>
  <variable name="X(105,11,9)" index="4672163" value="1"/>
  <variable name="X(105,12,10)" index="4679761" value="1"/>
  <variable name="X(105,17,14)" index="4687362" value="1"/>
  <variable name="X(105,20,16)" index="4694961" value="1"/>
  <variable name="X(105,61,858)" index="4703400" value="1"/>
  <variable name="X(105,76,863)" index="4711002" value="1"/>
  <variable name="X(105,100,943)" index="4718679" value="1"/>
  <variable name="X(105,218,96)" index="4725429" value="1"/>
  <variable name="X(106,24,3776)" index="4736706" value="1"/>
  <variable name="X(106,59,1593)" index="4742120" value="1"/>
  <variable name="X(106,107,98)" index="4748222" value="1"/>
  <variable name="X(106,219,97)" index="4755818" value="1"/>
  <variable name="X(107,106,7033)" index="4770351" value="1"/>
  <variable name="X(107,108,375)" index="4771290" value="1"/>
  <variable name="X(107,220,98)" index="4778610" value="1"/>
  <variable name="X(108,107,7119)" index="4793228" value="1"/>
  <variable name="X(108,109,951)" index="4794657" value="1"/>
  <variable name="X(108,221,375)" index="4801678" value="1"/>
  <variable name="X(109,108,7193)" index="4816093" value="1"/>
  <variable name="X(109,110,7115)" index="4823612" value="1"/>
  <variable name="X(109,222,99)" index="4824193" value="1"/>
  <variable name="X(110,109,99)" index="4831790" value="1"/>
  <variable name="X(110,111,7187)" index="4846475" value="1"/>
  <variable name="X(110,223,100)" index="4846985" value="1"/>
  <variable name="X(111,59,7190)" index="4861672" value="1"/>
  <variable name="X(111,110,99)" index="4862178" value="1"/>
  <variable name="X(111,224,101)" index="4869777" value="1"/>
  <variable name="X(112,48,198)" index="4877471" value="1"/>
  <variable name="X(112,55,47)" index="4884917" value="1"/>
  <variable name="X(112,56,48)" index="4892515" value="1"/>
  <variable name="X(112,225,102)" index="4900166" value="1"/>
  <variable name="X(113,32,212)" index="4907873" value="1"/>
  <variable name="X(113,75,2293)" index="4917551" value="1"/>
  <variable name="X(113,100,2144)" index="4924999" value="1"/>
  <variable name="X(113,226,103)" index="4930555" value="1"/>
 </variables>
</CPLEXSolution>
